data/instances/vrp_files/train_71.vrp
NAME : 71
COMMENT : Generated instance No. 71
TYPE : CVRP
DIMENSION : 21
EDGE_WEIGHT_TYPE : EUC_2D
CAPACITY : 30
NODE_COORD_SECTION
 1 988 225
 2 307 837
 3 614 581
 4 253 756
 5 81 924
 6 325 127
 7 442 42
 8 684 902
 9 837 127
 10 126 813
 11 924 460
 12 498 318
 13 894 644
 14 288 298
 15 891 13
 16 322 554
 17 148 92
 18 815 894
 19 823 898
 20 553 812
 21 384 666
DEMAND_SECTION
1 0
2 8
3 7
4 1
5 4
6 7
7 7
8 6
9 8
10 6
11 10
12 3
13 4
14 3
15 1
16 10
17 5
18 1
19 1
20 2
21 4
DEPOT_SECTION
 1
 -1
EOF